Figure: small_4
File Number: 20
Nodes: 74
Edges: 602
Max Generations: 1000
Population Size: 100
Mutation Rate: 0.01
Colors Used: 11
Runtime: 0.34

Generation,Average Fitness,Best Fitness
0,58.7,38
1,57.28,38
2,53.58,38
3,52.86,34
4,51.68,28
5,49.64,24
6,47.78,24
7,46.68,22
8,45.14,22
9,43.86,22
10,43.02,22
11,40.58,22
12,41.5,22
13,37.28,22
14,35.38,20
15,33.14,20
16,30.78,18
17,28.3,18
18,25.92,18
19,24.88,18
20,23.82,16
21,22.98,16
22,21.62,14
23,20.74,14
24,20.26,12
25,18.86,10
26,18.08,10
27,17.76,10
28,17.26,10
29,16.68,10
30,15.7,8
31,15.04,8
32,13.82,8
33,12.7,8
34,12.3,8
35,11.98,8
36,11.62,8
37,11.38,8
38,11.24,8
39,11.22,8
40,10.64,8
41,10.42,6
42,10.32,6
43,9.92,6
44,9.82,6
45,9.74,6
46,9.72,6
47,9.44,6
48,9.5,6
49,9.36,6
50,9.02,6
51,8.94,6
52,8.78,6
53,8.08,6
54,7.78,6
55,7.94,6
56,8.06,6
57,7.74,6
58,7.74,4
59,7.48,4
60,7.64,4
61,7.56,4
62,7.38,4
63,7.04,4
64,7.3,4
65,6.86,4
66,6.96,4
67,6.84,4
68,6.62,4
69,6.34,4
70,5.94,4
71,5.74,4
72,5.84,4
73,5.44,4
74,5.76,4
75,5.64,4
76,5.52,4
77,5.54,4
78,5.84,4
79,5.8,4
80,5.66,4
81,5.66,4
82,5.56,4
83,5.52,4
84,5.7,4
85,5.66,4
86,5.6,4
87,5.42,4
88,5.54,4
89,5.54,4
90,5.5,4
91,5.82,4
92,5.76,4
93,5.4,4
94,5.38,4
95,5.56,4
96,5.72,4
97,5.66,4
98,5.9,4
99,6.1,4
100,5.94,4
101,6.14,4
102,6.24,4
103,5.78,4
104,6.12,4
105,5.78,4
106,6.14,4
107,6.82,4
108,6.44,4
109,6.34,4
110,5.8,4
111,6.14,4
112,6.28,4
113,6.16,4
114,5.62,4
115,5.54,4
116,5.78,4
117,5.96,4
118,5.98,4
119,5.66,4
120,5.98,4
121,5.94,4
122,6.32,4
123,6.62,4
124,6.32,4
125,6.16,4
126,6.14,4
127,5.7,4
128,5.84,4
129,5.78,4
130,5.92,4
131,5.62,4
132,5.8,4
133,5.76,4
134,5.8,4
135,5.84,4
136,6.04,4
137,6.0,4
138,6.3,4
139,6.14,4
140,6.04,4
141,6.24,4
142,5.88,4
143,5.74,4
144,6.06,4
145,6.84,4
146,6.3,4
147,5.98,4
148,5.9,4
149,5.82,4
150,5.84,4
151,6.0,4
152,6.2,4
153,6.06,4
154,6.12,4
155,5.94,4
156,5.86,4
157,6.36,4
158,6.08,4
159,6.04,4
160,6.04,4
161,5.9,4
162,5.8,4
163,6.02,4
164,5.76,4
165,6.06,4
166,5.94,4
167,5.88,4
168,6.28,4
169,5.56,4
170,6.0,4
171,5.96,4
172,5.54,4
173,5.56,4
174,5.86,4
175,5.62,4
176,5.84,4
177,6.0,4
178,5.68,4
179,5.52,4
180,5.58,4
181,5.64,4
182,5.52,4
183,5.54,4
184,5.96,4
185,5.78,4
186,6.46,4
187,6.28,4
188,6.52,4
189,6.54,4
190,6.88,4
191,6.18,4
192,5.74,4
193,5.64,4
194,5.58,4
195,5.5,4
196,5.32,4
197,5.44,4
198,5.72,4
199,5.7,4
200,5.54,4
201,5.46,4
202,5.84,4
203,6.0,4
204,5.6,4
205,5.9,4
206,6.2,4
207,5.68,4
208,5.98,4
209,6.22,4
210,5.62,4
211,5.14,4
212,5.42,4
213,5.12,4
214,5.28,4
215,5.58,4
216,5.98,4
217,5.62,4
218,5.82,4
219,5.98,4
220,6.26,4
221,6.12,4
222,6.12,4
223,6.04,4
224,6.06,4
225,5.9,4
226,6.3,4
227,5.78,4
228,5.76,4
229,5.98,4
230,5.56,4
231,5.38,4
232,5.36,4
233,5.26,4
234,5.3,4
235,5.6,4
236,5.92,4
237,5.92,4
238,5.54,4
239,6.16,4
240,5.82,4
241,6.04,4
242,5.34,4
243,5.56,4
244,6.0,4
245,5.74,4
246,5.8,4
247,5.92,4
248,5.72,4
249,5.98,4
250,5.6,4
251,5.64,4
252,6.16,4
253,6.28,4
254,6.34,4
255,6.2,4
256,6.04,4
257,5.76,4
258,6.12,4
259,6.08,4
260,6.06,4
261,5.82,4
262,6.1,4
263,6.74,2
264,6.64,2
265,6.46,2
266,6.08,2
267,6.24,2
268,5.9,2
269,5.76,2
270,5.48,2
271,5.54,2
272,5.28,2
273,5.32,2
274,5.02,2
275,4.94,2
276,4.56,2
277,4.66,2
278,4.76,2
279,4.64,2
280,4.3,2
281,4.34,2
282,3.92,2
283,3.66,2
284,3.8,2
285,4.02,2
286,3.78,2
287,4.16,2
288,4.34,2
289,4.28,2
290,4.14,2
291,4.36,2
292,4.38,2
293,4.04,2
294,4.24,2
295,3.9,2
296,4.22,2
297,4.14,2
298,4.42,2
299,4.06,2
300,4.26,2
301,4.0,2
302,3.72,2
303,4.22,2
304,4.44,2
305,4.52,2
306,4.6,2
307,4.6,2
308,4.6,2
309,4.4,2
310,4.24,2
311,4.56,2
312,4.62,2
313,4.52,2
314,4.5,2
315,4.2,2
316,4.4,2
317,3.7,2
318,3.98,2
319,3.64,2
320,3.94,2
321,3.9,2
322,4.0,2
323,4.02,2
324,4.3,2
325,4.16,2
326,3.94,2
327,3.5,2
328,3.44,2
329,3.2,2
330,3.42,2
331,3.72,2
332,3.98,2
333,3.96,2
334,3.56,2
335,3.98,2
336,4.16,2
337,4.16,2
338,4.18,2
339,3.98,2
340,4.06,2
341,3.36,2
342,4.0,2
343,3.96,2
344,4.14,2
345,4.44,2
346,3.96,2
347,3.96,2
348,3.98,2
349,3.76,2
350,3.5,2
351,3.9,2
352,3.98,2
353,4.6,2
354,4.28,2
355,3.82,2
356,4.0,2
357,3.82,2
358,3.38,2
359,3.46,2
360,3.92,2
361,3.7,2
362,4.12,2
363,3.58,2
364,3.72,2
365,3.92,2
366,3.94,2
367,4.04,2
368,3.98,2
369,3.52,2
370,3.28,2
371,3.58,2
372,3.44,2
373,3.52,2
374,3.6,2
375,3.72,2
376,3.54,2
377,3.98,2
378,4.3,2
379,4.1,2
380,4.54,2
381,4.2,2
382,3.88,2
383,3.9,2
384,3.74,2
385,3.64,2
386,3.92,2
387,3.92,2
388,3.78,2
389,3.66,2
390,4.08,2
391,3.72,2
392,3.66,2
393,4.04,2
394,4.04,2
395,3.84,2
396,3.86,2
397,3.74,2
398,3.42,2
399,3.42,2
400,3.22,2
401,3.42,2
402,3.84,2
403,4.12,2
404,4.08,2
405,3.84,2
406,3.98,2
407,4.0,2
408,3.86,2
409,4.36,2
410,3.86,2
411,3.78,2
412,3.58,2
413,4.04,2
414,4.0,2
415,3.82,2
416,4.08,2
417,4.18,2
418,3.7,2
419,3.8,2
420,4.22,2
421,3.96,2
422,4.06,2
423,3.92,2
424,4.48,2
425,4.12,2
426,4.0,2
427,3.82,2
428,4.08,2
429,4.16,2
430,3.78,2
431,4.34,2
432,4.14,2
433,4.66,2
434,4.44,2
435,4.34,2
436,4.46,2
437,4.06,2
438,3.92,2
439,3.88,2
440,3.48,2
441,3.48,2
442,3.48,2
443,3.72,2
444,3.48,2
445,3.68,2
446,3.76,2
447,3.84,2
448,3.78,2
449,3.6,2
450,3.86,2
451,3.62,2
452,3.48,2
453,3.98,2
454,3.88,2
455,3.68,2
456,3.52,2
457,3.9,2
458,3.5,2
459,3.72,2
460,3.66,2
461,4.0,2
462,3.98,2
463,3.9,2
464,3.46,2
465,3.24,2
466,3.84,2
467,3.8,2
468,3.62,2
469,3.94,2
470,3.94,2
471,3.98,2
472,4.24,2
473,4.06,2
474,3.44,2
475,3.66,2
476,3.88,2
477,4.32,2
478,4.08,2
479,3.92,2
480,3.96,2
481,4.34,2
482,4.3,2
483,4.44,2
484,4.36,2
485,4.9,2
486,4.58,2
487,4.3,2
488,3.9,2
489,4.02,2
490,3.58,2
491,4.04,2
492,3.84,2
493,3.7,2
494,3.5,2
495,3.64,2
496,3.76,2
497,4.08,2
498,3.88,2
499,3.98,2
500,3.92,2
501,3.96,2
502,3.62,2
503,3.84,2
504,3.6,2
505,3.7,2
506,4.3,2
507,4.34,2
508,3.78,2
509,3.98,2
510,4.0,2
511,4.12,2
512,3.74,2
513,3.9,2
514,3.32,2
515,3.48,2
516,3.6,2
517,3.82,2
518,4.52,2
519,3.88,2
520,4.42,2
521,4.4,2
522,4.94,2
523,4.42,2
524,3.84,2
525,4.42,2
526,3.86,2
527,3.68,2
528,4.06,2
529,3.64,2
530,3.98,2
531,4.24,2
532,3.74,2
533,4.32,2
534,4.1,2
535,3.82,2
536,4.16,2
537,3.94,2
538,4.24,2
539,3.44,2
540,4.14,2
541,4.38,2
542,4.3,2
543,3.86,2
544,3.86,2
545,3.72,2
546,3.96,2
547,3.6,2
548,4.02,2
549,4.38,2
550,4.36,2
551,4.08,2
552,4.06,2
553,3.98,2
554,4.12,2
555,3.68,2
556,3.84,2
557,3.72,2
558,4.26,2
559,4.28,2
560,4.0,2
561,3.96,2
562,3.94,2
563,3.74,2
564,3.88,2
565,3.66,2
566,3.84,2
567,3.74,2
568,3.38,2
569,3.58,2
570,3.6,2
571,3.98,2
572,3.98,2
573,3.74,2
574,3.82,2
575,3.36,2
576,3.52,2
577,3.52,2
578,3.98,2
579,4.16,2
580,3.86,2
581,4.02,2
582,3.78,2
583,4.12,2
584,4.18,2
585,3.74,2
586,3.74,2
587,4.18,2
588,3.72,2
589,3.34,2
590,3.72,2
591,3.48,2
592,3.72,2
593,4.1,2
594,4.24,2
595,4.52,2
596,4.18,2
597,3.84,2
598,4.24,2
599,3.78,2
600,3.56,2
601,3.62,2
602,3.7,2
603,3.64,2
604,4.0,2
605,3.92,2
606,3.88,2
607,3.78,2
608,3.76,2
609,3.72,2
610,3.62,2
611,4.04,2
612,3.94,2
613,3.64,2
614,3.68,2
615,3.96,2
616,3.86,2
617,3.78,2
618,3.68,2
619,3.34,2
620,3.6,2
621,3.5,2
622,3.58,2
623,3.54,2
624,3.52,2
625,3.22,2
626,3.36,2
627,3.9,2
628,4.06,2
629,4.12,2
630,4.28,2
631,4.06,2
632,3.72,2
633,3.98,2
634,3.68,2
635,3.82,2
636,3.66,2
637,3.66,2
638,3.68,2
639,3.6,2
640,3.5,2
641,3.92,2
642,3.98,2
643,4.06,2
644,3.46,2
645,3.84,2
646,3.68,2
647,3.68,2
648,3.52,2
649,3.4,2
650,3.4,2
651,3.62,2
652,4.22,2
653,3.52,2
654,3.82,2
655,3.68,2
656,3.76,2
657,3.54,2
658,3.74,2
659,3.58,2
660,4.02,2
661,3.92,2
662,3.94,2
663,3.92,2
664,4.02,2
665,3.88,2
666,4.7,2
667,4.8,2
668,4.52,2
669,5.34,2
670,5.0,2
671,4.96,2
672,5.54,2
673,4.9,2
674,5.16,2
675,4.68,2
676,4.12,2
677,3.78,2
678,4.02,2
679,4.2,2
680,4.18,2
681,4.42,2
682,4.6,2
683,4.0,2
684,4.5,2
685,3.74,2
686,4.0,2
687,3.98,2
688,3.84,2
689,4.3,2
690,3.9,2
691,3.62,2
692,4.3,2
693,4.3,2
694,4.16,2
695,3.94,2
696,4.34,2
697,4.48,2
698,4.26,2
699,3.96,2
700,4.06,2
701,3.48,2
702,3.48,2
703,4.04,2
704,4.08,2
705,4.36,2
706,4.6,2
707,4.6,2
708,4.62,2
709,4.06,2
710,4.22,2
711,4.3,2
712,4.94,2
713,4.42,2
714,4.32,2
715,4.28,2
716,3.76,2
717,3.92,2
718,3.56,2
719,3.78,2
720,4.04,2
721,3.48,2
722,3.6,2
723,3.82,2
724,3.94,2
725,3.98,2
726,3.98,2
727,4.1,2
728,4.34,2
729,4.54,2
730,4.52,2
731,4.62,2
732,4.62,2
733,4.5,2
734,4.26,2
735,3.92,2
736,3.34,2
737,3.62,2
738,3.96,2
739,3.86,2
740,4.22,2
741,4.48,2
742,4.28,2
743,3.88,2
744,4.06,2
745,4.34,2
746,4.1,2
747,3.8,2
748,3.96,2
749,3.8,2
750,3.92,2
751,4.22,2
752,3.98,2
753,3.96,2
754,3.64,2
755,3.72,2
756,3.72,2
757,3.9,2
758,4.12,2
759,4.12,2
760,4.12,2
761,4.12,2
762,4.54,2
763,4.12,2
764,4.06,2
765,3.34,2
766,4.1,2
767,3.68,2
768,3.76,2
769,4.26,2
770,4.26,2
771,3.86,2
772,3.84,2
773,3.82,2
774,4.16,2
775,3.9,2
776,3.8,2
777,3.88,2
778,3.92,2
779,3.92,2
780,4.04,2
781,4.12,2
782,4.1,2
783,4.32,2
784,3.86,2
785,4.22,2
786,3.88,2
787,3.98,2
788,4.04,2
789,3.64,2
790,4.1,2
791,3.92,2
792,3.88,2
793,3.9,2
794,3.52,2
795,4.12,2
796,3.94,2
797,3.88,2
798,4.18,2
799,3.72,2
800,3.66,2
801,4.3,2
802,3.88,2
803,4.1,2
804,3.98,2
805,4.24,2
806,4.18,2
807,4.0,2
808,3.52,2
809,3.78,2
810,3.46,2
811,3.66,2
812,3.8,2
813,4.24,2
814,4.36,2
815,3.86,2
816,3.96,2
817,3.76,2
818,3.68,2
819,3.72,2
820,3.5,2
821,3.92,2
822,4.4,2
823,3.84,2
824,3.82,2
825,3.5,2
826,3.82,2
827,3.74,2
828,3.68,2
829,4.06,2
830,3.96,2
831,4.44,2
832,4.0,2
833,3.82,2
834,4.02,2
835,4.74,2
836,4.22,2
837,4.26,2
838,4.06,2
839,4.14,2
840,4.16,2
841,4.52,2
842,3.86,2
843,3.38,2
844,3.72,2
845,4.08,2
846,4.34,2
847,4.12,2
848,3.88,2
849,4.04,2
850,3.48,2
851,3.58,2
852,3.56,2
853,4.08,2
854,4.02,2
855,3.38,2
856,3.68,2
857,3.2,2
858,3.58,2
859,3.8,2
860,3.76,2
861,3.72,2
862,3.72,2
863,4.22,2
864,4.14,2
865,4.12,2
866,4.7,2
867,4.32,2
868,4.44,2
869,4.08,2
870,4.06,2
871,3.84,2
872,3.64,2
873,4.36,2
874,4.26,2
875,4.26,2
876,3.66,2
877,4.22,2
878,3.94,2
879,4.08,2
880,4.32,2
881,4.4,2
882,4.42,2
883,4.0,2
884,4.0,2
885,3.68,2
886,3.94,2
887,3.62,2
888,3.82,2
889,3.7,2
890,3.84,2
891,4.62,2
892,4.3,2
893,4.26,2
894,3.42,2
895,3.22,2
896,3.68,2
897,3.76,2
898,3.62,2
899,3.88,2
900,4.1,2
901,3.68,2
902,3.8,2
903,4.26,2
904,3.78,2
905,3.88,2
906,3.8,2
907,3.86,2
908,4.0,2
909,3.78,2
910,4.06,2
911,4.36,2
912,4.06,2
913,3.7,2
914,3.62,2
915,4.0,2
916,3.56,2
917,3.54,2
918,3.72,2
919,3.58,2
920,3.36,2
921,3.7,2
922,4.2,2
923,3.54,2
924,3.72,2
925,3.46,2
926,3.8,2
927,3.82,2
928,3.8,2
929,4.12,2
930,3.88,2
931,3.64,2
932,3.78,2
933,4.18,2
934,4.06,2
935,4.08,2
936,4.02,2
937,3.98,2
938,4.06,2
939,3.94,2
940,3.88,2
941,4.24,2
942,4.14,2
943,4.14,2
944,4.12,2
945,4.44,2
946,3.84,2
947,3.72,2
948,3.56,2
949,3.7,2
950,3.18,2
951,3.08,2
952,3.32,2
953,3.78,2
954,3.3,2
955,3.6,2
956,3.88,2
957,3.8,2
958,4.2,2
959,4.24,2
960,4.4,2
961,4.7,2
962,4.52,2
963,4.36,2
964,4.24,2
965,4.3,2
966,4.36,2
967,4.26,2
968,4.48,2
969,3.86,2
970,3.82,2
971,3.74,2
972,3.8,2
973,4.08,2
974,4.08,2
975,4.82,2
976,4.78,2
977,4.64,2
978,5.0,2
979,4.92,2
980,4.2,2
981,3.94,2
982,4.16,2
983,4.02,2
984,4.08,2
985,4.48,2
986,3.94,2
987,3.84,2
988,3.62,2
989,3.62,2
990,3.62,2
991,3.54,2
992,4.04,2
993,3.96,2
994,3.7,2
995,3.72,2
996,3.48,2
997,3.22,2
998,3.44,2
999,3.92,2
